myproject/instances/20nodes/rnd30_20.tsp
NAME : rnd30_20.tsp
TYPE : TSP
DIMENSION : 20
EDGE_WEIGHT_TYPE : EUC_2D
NODE_COORD_SECTION
0 522 793
1 645 903
2 758 618
3 887 115
4 545 466
5 186 376
6 780 335
7 813 804
8 880 733
9 774 212
10 909 573
11 273 409
12 400 772
13 101 591
14 659 245
15 615 697
16 317 960
17 537 361
18 798 2
19 585 212
