myproject/instances/20nodes/rnd30_20.opt.tour
NAME : rnd30_20.tsp.tsp.optbc.tour
TYPE : TOUR
DIMENSION : 20
TOUR_SECTION
1
8
11
6
13
12
17
9
20
16
2
10
19
4
15
7
14
18
3
5
-1